26 10000
1570 28
6907 30
8941 25
4693 36
5903 16
7479 23
7163 42
7247 51
2992 7
3378 77
6728 61
7901 89
5386 3
4178 83
78 1
377 2
9246 62
7481 70
4795 78
153 70
4063 24
5892 87
3702 61
422 23
6735 51
7886 64
